proyfinal/src/viki/013/andrea/andrea-localstore/experimentInOfficeAgust.take6/worker_11/6caa5b86-1864-4272-b32d-9faf4cad34bb.als.cnf.out
Reading from standard input... Use '--help' for help.
============================[ Problem Statistics ]=============================
|                                                                             |
|  Number of variables:         87638                                         |
|  Number of clauses:          161767                                         |
|  Parse time:                   0.03 s                                       |
|                                                                             |
============================[ Search Statistics ]==============================
| Conflicts |          ORIGINAL         |          LEARNT          | Progress |
|           |    Vars  Clauses Literals |    Limit  Clauses Lit/Cl |          |
===============================================================================
|       100 |   65098   115092   286779 |    42200      100     13 | 25.719 % |
|       250 |   65098   115092   286779 |    46420      250     33 | 25.719 % |
|       475 |   65098   115092   286779 |    51062      475    121 | 25.719 % |
|       812 |   65098   115092   286779 |    56168      812    105 | 25.719 % |
|      1318 |   65098   115092   286779 |    61785     1318     99 | 25.719 % |
|      2077 |   60924   101356   252727 |    67964     2072     83 | 30.482 % |
|      3216 |   60923   101351   252715 |    74760     3210     99 | 30.483 % |
|      4924 |   60883   101201   252332 |    82236     4815     86 | 30.529 % |
|      7486 |   59619    96982   241472 |    90460     7103     79 | 31.971 % |
|     11330 |   59613    96974   241456 |    99506    10944     82 | 31.978 % |
|     17096 |   59493    96486   240352 |   109456    14798     77 | 32.115 % |
===============================================================================
restarts              : 74
conflicts             : 20903          (8178 /sec)
decisions             : 78094          (0.00 % random) (30554 /sec)
propagations          : 27144446       (10620329 /sec)
conflict literals     : 1725842        (46.61 % deleted)
Memory used           : 37.96 MB
CPU time              : 2.5559 s

INDETERMINATE
